(declare-fun var0 () String)
(assert (RegexIn var0 (RegexConcat (RegexStar (RegexStar (RegexUnion (RegexStar (RegexStar (RegexStar (RegexStar (RegexPlus (RegexStar (RegexPlus (RegexUnion (RegexStar (Str2Reg "!!")) (RegexUnion (Str2Reg "\"") (Str2Reg "##")))))))))) (RegexStar (RegexPlus (RegexPlus (RegexStar (RegexUnion (RegexUnion (RegexStar (RegexStar (RegexPlus (Str2Reg "$$")))) (RegexStar (RegexPlus (RegexUnion (Str2Reg "%%%") (Str2Reg "&"))))) (RegexUnion (RegexPlus (RegexUnion (RegexPlus (Str2Reg "'")) (RegexStar (Str2Reg "(")))) (RegexStar (RegexPlus (RegexStar (Str2Reg "))"))))))))))))) (RegexPlus (RegexUnion (RegexUnion (RegexUnion (RegexPlus (RegexPlus (RegexPlus (RegexStar (RegexPlus (RegexStar (RegexPlus (RegexStar (Str2Reg "000"))))))))) (RegexPlus (RegexStar (RegexUnion (RegexStar (RegexStar (RegexStar (RegexPlus (RegexStar (Str2Reg "1")))))) (RegexPlus (RegexPlus (RegexStar (RegexUnion (RegexUnion (Str2Reg "222") (Str2Reg "33")) (RegexStar (Str2Reg "44")))))))))) (RegexUnion (RegexStar (RegexUnion (RegexStar (RegexPlus (RegexUnion (RegexStar (RegexUnion (RegexStar (Str2Reg "5")) (RegexStar (Str2Reg "66")))) (RegexStar (RegexStar (RegexUnion (Str2Reg "7") (Str2Reg "8"))))))) (RegexUnion (RegexUnion (RegexUnion (RegexPlus (RegexUnion (RegexStar (Str2Reg "999")) (RegexUnion (Str2Reg "aa") (Str2Reg "b")))) (RegexStar (RegexStar (RegexUnion (Str2Reg "c") (Str2Reg "ddd"))))) (RegexUnion (RegexPlus (RegexStar (RegexPlus (Str2Reg "e")))) (RegexPlus (RegexStar (RegexPlus (Str2Reg "ff")))))) (RegexStar (RegexPlus (RegexUnion (RegexPlus (RegexStar (Str2Reg "ggg"))) (RegexUnion (RegexStar (Str2Reg "hhh")) (RegexPlus (Str2Reg "ii"))))))))) (RegexUnion (RegexPlus (RegexPlus (RegexUnion (RegexUnion (RegexStar (RegexStar (RegexStar (Str2Reg "jjj")))) (RegexUnion (RegexPlus (RegexUnion (Str2Reg "kkk") (Str2Reg "l"))) (RegexStar (RegexUnion (Str2Reg "mmm") (Str2Reg "nnn"))))) (RegexStar (RegexStar (RegexStar (RegexUnion (Str2Reg "oo") (Str2Reg "p")))))))) (RegexStar (RegexStar (RegexUnion (RegexPlus (RegexUnion (RegexPlus (RegexUnion (Str2Reg "q") (Str2Reg "rrr"))) (RegexUnion (RegexPlus (Str2Reg "ss")) (RegexUnion (Str2Reg "ttt") (Str2Reg "uuu"))))) (RegexPlus (RegexUnion (RegexPlus (RegexStar (Str2Reg "vv"))) (RegexUnion (RegexPlus (Str2Reg "w")) (RegexStar (Str2Reg "xxx"))))))))))) (RegexUnion (RegexUnion (RegexPlus (RegexUnion (RegexPlus (RegexUnion (RegexStar (RegexUnion (RegexUnion (RegexStar (Str2Reg "yyy")) (RegexPlus (Str2Reg "z"))) (RegexUnion (RegexUnion (Str2Reg "AAA") (Str2Reg "B")) (RegexPlus (Str2Reg "CC"))))) (RegexStar (RegexStar (RegexPlus (RegexPlus (Str2Reg "D"))))))) (RegexUnion (RegexPlus (RegexPlus (RegexStar (RegexStar (RegexStar (Str2Reg "E")))))) (RegexPlus (RegexStar (RegexUnion (RegexPlus (RegexPlus (Str2Reg "FFF"))) (RegexPlus (RegexUnion (Str2Reg "GG") (Str2Reg "HH"))))))))) (RegexPlus (RegexUnion (RegexStar (RegexUnion (RegexStar (RegexUnion (RegexStar (RegexUnion (Str2Reg "I") (Str2Reg "JJ"))) (RegexStar (RegexPlus (Str2Reg "KKK"))))) (RegexStar (RegexUnion (RegexUnion (RegexPlus (Str2Reg "LLL")) (RegexStar (Str2Reg "MM"))) (RegexStar (RegexPlus (Str2Reg "NNN"))))))) (RegexStar (RegexStar (RegexUnion (RegexUnion (RegexPlus (RegexPlus (Str2Reg "OO"))) (RegexUnion (RegexPlus (Str2Reg "P")) (RegexPlus (Str2Reg "QQQ")))) (RegexPlus (RegexPlus (RegexPlus (Str2Reg "RR")))))))))) (RegexPlus (RegexPlus (RegexUnion (RegexPlus (RegexStar (RegexStar (RegexUnion (RegexUnion (RegexUnion (Str2Reg "SSS") (Str2Reg "TT")) (RegexStar (Str2Reg "U"))) (RegexStar (RegexPlus (Str2Reg "VVV"))))))) (RegexPlus (RegexPlus (RegexUnion (RegexPlus (RegexUnion (RegexUnion (Str2Reg "W") (Str2Reg "XXX")) (RegexPlus (Str2Reg "YY")))) (RegexStar (RegexPlus (RegexStar (Str2Reg "ZZ"))))))))))))))))
(assert (<= 15 (Length var0)))
(check-sat)